c File: flat75_3_0.col
c
c SOURCE: Joseph Culberson (joe@cs.ualberta.ca)
c DESCRIPTION: Quasi-random coloring problem
c              generated with flatness = 0
c                             probability = 0.096
c                             known coloring = 3
c                             random seed = 1031
c              Creation Date:  Wed Feb 24 10:41:55 1999
c Maximum degree = 8 Minimum degree = 0
c COLOR VERIFICATION: Using the permuted order
c under simple greedy yields the specified
c coloring number
c Color = 3 specified partitions = 3
c p edge 75 180
c cnf created by edge2cnf
p cnf 225 840
-1 -2 0
-1 -3 0
-2 -3 0
1 2 3 0
-4 -5 0
-4 -6 0
-5 -6 0
4 5 6 0
-7 -8 0
-7 -9 0
-8 -9 0
7 8 9 0
-10 -11 0
-10 -12 0
-11 -12 0
10 11 12 0
-13 -14 0
-13 -15 0
-14 -15 0
13 14 15 0
-16 -17 0
-16 -18 0
-17 -18 0
16 17 18 0
-19 -20 0
-19 -21 0
-20 -21 0
19 20 21 0
-22 -23 0
-22 -24 0
-23 -24 0
22 23 24 0
-25 -26 0
-25 -27 0
-26 -27 0
25 26 27 0
-28 -29 0
-28 -30 0
-29 -30 0
28 29 30 0
-31 -32 0
-31 -33 0
-32 -33 0
31 32 33 0
-34 -35 0
-34 -36 0
-35 -36 0
34 35 36 0
-37 -38 0
-37 -39 0
-38 -39 0
37 38 39 0
-40 -41 0
-40 -42 0
-41 -42 0
40 41 42 0
-43 -44 0
-43 -45 0
-44 -45 0
43 44 45 0
-46 -47 0
-46 -48 0
-47 -48 0
46 47 48 0
-49 -50 0
-49 -51 0
-50 -51 0
49 50 51 0
-52 -53 0
-52 -54 0
-53 -54 0
52 53 54 0
-55 -56 0
-55 -57 0
-56 -57 0
55 56 57 0
-58 -59 0
-58 -60 0
-59 -60 0
58 59 60 0
-61 -62 0
-61 -63 0
-62 -63 0
61 62 63 0
-64 -65 0
-64 -66 0
-65 -66 0
64 65 66 0
-67 -68 0
-67 -69 0
-68 -69 0
67 68 69 0
-70 -71 0
-70 -72 0
-71 -72 0
70 71 72 0
-73 -74 0
-73 -75 0
-74 -75 0
73 74 75 0
-76 -77 0
-76 -78 0
-77 -78 0
76 77 78 0
-79 -80 0
-79 -81 0
-80 -81 0
79 80 81 0
-82 -83 0
-82 -84 0
-83 -84 0
82 83 84 0
-85 -86 0
-85 -87 0
-86 -87 0
85 86 87 0
-88 -89 0
-88 -90 0
-89 -90 0
88 89 90 0
-91 -92 0
-91 -93 0
-92 -93 0
91 92 93 0
-94 -95 0
-94 -96 0
-95 -96 0
94 95 96 0
-97 -98 0
-97 -99 0
-98 -99 0
97 98 99 0
-100 -101 0
-100 -102 0
-101 -102 0
100 101 102 0
-103 -104 0
-103 -105 0
-104 -105 0
103 104 105 0
-106 -107 0
-106 -108 0
-107 -108 0
106 107 108 0
-109 -110 0
-109 -111 0
-110 -111 0
109 110 111 0
-112 -113 0
-112 -114 0
-113 -114 0
112 113 114 0
-115 -116 0
-115 -117 0
-116 -117 0
115 116 117 0
-118 -119 0
-118 -120 0
-119 -120 0
118 119 120 0
-121 -122 0
-121 -123 0
-122 -123 0
121 122 123 0
-124 -125 0
-124 -126 0
-125 -126 0
124 125 126 0
-127 -128 0
-127 -129 0
-128 -129 0
127 128 129 0
-130 -131 0
-130 -132 0
-131 -132 0
130 131 132 0
-133 -134 0
-133 -135 0
-134 -135 0
133 134 135 0
-136 -137 0
-136 -138 0
-137 -138 0
136 137 138 0
-139 -140 0
-139 -141 0
-140 -141 0
139 140 141 0
-142 -143 0
-142 -144 0
-143 -144 0
142 143 144 0
-145 -146 0
-145 -147 0
-146 -147 0
145 146 147 0
-148 -149 0
-148 -150 0
-149 -150 0
148 149 150 0
-151 -152 0
-151 -153 0
-152 -153 0
151 152 153 0
-154 -155 0
-154 -156 0
-155 -156 0
154 155 156 0
-157 -158 0
-157 -159 0
-158 -159 0
157 158 159 0
-160 -161 0
-160 -162 0
-161 -162 0
160 161 162 0
-163 -164 0
-163 -165 0
-164 -165 0
163 164 165 0
-166 -167 0
-166 -168 0
-167 -168 0
166 167 168 0
-169 -170 0
-169 -171 0
-170 -171 0
169 170 171 0
-172 -173 0
-172 -174 0
-173 -174 0
172 173 174 0
-175 -176 0
-175 -177 0
-176 -177 0
175 176 177 0
-178 -179 0
-178 -180 0
-179 -180 0
178 179 180 0
-181 -182 0
-181 -183 0
-182 -183 0
181 182 183 0
-184 -185 0
-184 -186 0
-185 -186 0
184 185 186 0
-187 -188 0
-187 -189 0
-188 -189 0
187 188 189 0
-190 -191 0
-190 -192 0
-191 -192 0
190 191 192 0
-193 -194 0
-193 -195 0
-194 -195 0
193 194 195 0
-196 -197 0
-196 -198 0
-197 -198 0
196 197 198 0
-199 -200 0
-199 -201 0
-200 -201 0
199 200 201 0
-202 -203 0
-202 -204 0
-203 -204 0
202 203 204 0
-205 -206 0
-205 -207 0
-206 -207 0
205 206 207 0
-208 -209 0
-208 -210 0
-209 -210 0
208 209 210 0
-211 -212 0
-211 -213 0
-212 -213 0
211 212 213 0
-214 -215 0
-214 -216 0
-215 -216 0
214 215 216 0
-217 -218 0
-217 -219 0
-218 -219 0
217 218 219 0
-220 -221 0
-220 -222 0
-221 -222 0
220 221 222 0
-223 -224 0
-223 -225 0
-224 -225 0
223 224 225 0
-16 -1 0
-17 -2 0
-18 -3 0
-52 -1 0
-53 -2 0
-54 -3 0
-217 -1 0
-218 -2 0
-219 -3 0
-10 -4 0
-11 -5 0
-12 -6 0
-85 -4 0
-86 -5 0
-87 -6 0
-97 -4 0
-98 -5 0
-99 -6 0
-121 -4 0
-122 -5 0
-123 -6 0
-127 -4 0
-128 -5 0
-129 -6 0
-19 -7 0
-20 -8 0
-21 -9 0
-88 -7 0
-89 -8 0
-90 -9 0
-127 -7 0
-128 -8 0
-129 -9 0
-46 -10 0
-47 -11 0
-48 -12 0
-70 -10 0
-71 -11 0
-72 -12 0
-40 -13 0
-41 -14 0
-42 -15 0
-67 -13 0
-68 -14 0
-69 -15 0
-76 -13 0
-77 -14 0
-78 -15 0
-112 -13 0
-113 -14 0
-114 -15 0
-151 -13 0
-152 -14 0
-153 -15 0
-187 -13 0
-188 -14 0
-189 -15 0
-37 -16 0
-38 -17 0
-39 -18 0
-61 -16 0
-62 -17 0
-63 -18 0
-70 -16 0
-71 -17 0
-72 -18 0
-121 -16 0
-122 -17 0
-123 -18 0
-178 -16 0
-179 -17 0
-180 -18 0
-40 -19 0
-41 -20 0
-42 -21 0
-94 -19 0
-95 -20 0
-96 -21 0
-112 -19 0
-113 -20 0
-114 -21 0
-178 -19 0
-179 -20 0
-180 -21 0
-52 -22 0
-53 -23 0
-54 -24 0
-103 -25 0
-104 -26 0
-105 -27 0
-130 -25 0
-131 -26 0
-132 -27 0
-142 -25 0
-143 -26 0
-144 -27 0
-220 -25 0
-221 -26 0
-222 -27 0
-127 -34 0
-128 -35 0
-129 -36 0
-145 -34 0
-146 -35 0
-147 -36 0
-157 -34 0
-158 -35 0
-159 -36 0
-220 -37 0
-221 -38 0
-222 -39 0
-43 -40 0
-44 -41 0
-45 -42 0
-88 -40 0
-89 -41 0
-90 -42 0
-127 -40 0
-128 -41 0
-129 -42 0
-163 -40 0
-164 -41 0
-165 -42 0
-208 -40 0
-209 -41 0
-210 -42 0
-172 -43 0
-173 -44 0
-174 -45 0
-184 -43 0
-185 -44 0
-186 -45 0
-214 -43 0
-215 -44 0
-216 -45 0
-115 -46 0
-116 -47 0
-117 -48 0
-196 -46 0
-197 -47 0
-198 -48 0
-139 -49 0
-140 -50 0
-141 -51 0
-154 -49 0
-155 -50 0
-156 -51 0
-187 -49 0
-188 -50 0
-189 -51 0
-85 -52 0
-86 -53 0
-87 -54 0
-91 -52 0
-92 -53 0
-93 -54 0
-112 -52 0
-113 -53 0
-114 -54 0
-139 -52 0
-140 -53 0
-141 -54 0
-148 -52 0
-149 -53 0
-150 -54 0
-181 -52 0
-182 -53 0
-183 -54 0
-103 -55 0
-104 -56 0
-105 -57 0
-97 -58 0
-98 -59 0
-99 -60 0
-190 -58 0
-191 -59 0
-192 -60 0
-205 -58 0
-206 -59 0
-207 -60 0
-82 -61 0
-83 -62 0
-84 -63 0
-97 -61 0
-98 -62 0
-99 -63 0
-181 -61 0
-182 -62 0
-183 -63 0
-211 -61 0
-212 -62 0
-213 -63 0
-220 -61 0
-221 -62 0
-222 -63 0
-73 -64 0
-74 -65 0
-75 -66 0
-79 -64 0
-80 -65 0
-81 -66 0
-202 -64 0
-203 -65 0
-204 -66 0
-211 -64 0
-212 -65 0
-213 -66 0
-220 -64 0
-221 -65 0
-222 -66 0
-91 -67 0
-92 -68 0
-93 -69 0
-142 -67 0
-143 -68 0
-144 -69 0
-148 -67 0
-149 -68 0
-150 -69 0
-73 -70 0
-74 -71 0
-75 -72 0
-154 -70 0
-155 -71 0
-156 -72 0
-160 -70 0
-161 -71 0
-162 -72 0
-175 -70 0
-176 -71 0
-177 -72 0
-181 -70 0
-182 -71 0
-183 -72 0
-199 -70 0
-200 -71 0
-201 -72 0
-91 -73 0
-92 -74 0
-93 -75 0
-130 -73 0
-131 -74 0
-132 -75 0
-139 -73 0
-140 -74 0
-141 -75 0
-121 -76 0
-122 -77 0
-123 -78 0
-193 -76 0
-194 -77 0
-195 -78 0
-223 -76 0
-224 -77 0
-225 -78 0
-100 -79 0
-101 -80 0
-102 -81 0
-157 -79 0
-158 -80 0
-159 -81 0
-199 -79 0
-200 -80 0
-201 -81 0
-121 -82 0
-122 -83 0
-123 -84 0
-130 -82 0
-131 -83 0
-132 -84 0
-154 -82 0
-155 -83 0
-156 -84 0
-181 -82 0
-182 -83 0
-183 -84 0
-184 -82 0
-185 -83 0
-186 -84 0
-115 -85 0
-116 -86 0
-117 -87 0
-124 -85 0
-125 -86 0
-126 -87 0
-133 -85 0
-134 -86 0
-135 -87 0
-136 -85 0
-137 -86 0
-138 -87 0
-97 -88 0
-98 -89 0
-99 -90 0
-136 -88 0
-137 -89 0
-138 -90 0
-181 -88 0
-182 -89 0
-183 -90 0
-190 -88 0
-191 -89 0
-192 -90 0
-196 -88 0
-197 -89 0
-198 -90 0
-202 -91 0
-203 -92 0
-204 -93 0
-97 -94 0
-98 -95 0
-99 -96 0
-106 -94 0
-107 -95 0
-108 -96 0
-196 -94 0
-197 -95 0
-198 -96 0
-205 -94 0
-206 -95 0
-207 -96 0
-175 -97 0
-176 -98 0
-177 -99 0
-202 -97 0
-203 -98 0
-204 -99 0
-223 -97 0
-224 -98 0
-225 -99 0
-106 -100 0
-107 -101 0
-108 -102 0
-142 -100 0
-143 -101 0
-144 -102 0
-112 -103 0
-113 -104 0
-114 -105 0
-178 -103 0
-179 -104 0
-180 -105 0
-202 -103 0
-203 -104 0
-204 -105 0
-214 -103 0
-215 -104 0
-216 -105 0
-220 -103 0
-221 -104 0
-222 -105 0
-145 -106 0
-146 -107 0
-147 -108 0
-166 -106 0
-167 -107 0
-168 -108 0
-202 -106 0
-203 -107 0
-204 -108 0
-112 -109 0
-113 -110 0
-114 -111 0
-133 -109 0
-134 -110 0
-135 -111 0
-151 -109 0
-152 -110 0
-153 -111 0
-178 -109 0
-179 -110 0
-180 -111 0
-196 -109 0
-197 -110 0
-198 -111 0
-163 -112 0
-164 -113 0
-165 -114 0
-199 -112 0
-200 -113 0
-201 -114 0
-211 -112 0
-212 -113 0
-213 -114 0
-160 -115 0
-161 -116 0
-162 -117 0
-205 -115 0
-206 -116 0
-207 -117 0
-217 -115 0
-218 -116 0
-219 -117 0
-163 -118 0
-164 -119 0
-165 -120 0
-220 -118 0
-221 -119 0
-222 -120 0
-124 -121 0
-125 -122 0
-126 -123 0
-136 -121 0
-137 -122 0
-138 -123 0
-211 -121 0
-212 -122 0
-213 -123 0
-127 -124 0
-128 -125 0
-129 -126 0
-154 -124 0
-155 -125 0
-156 -126 0
-166 -124 0
-167 -125 0
-168 -126 0
-187 -124 0
-188 -125 0
-189 -126 0
-217 -124 0
-218 -125 0
-219 -126 0
-220 -124 0
-221 -125 0
-222 -126 0
-130 -127 0
-131 -128 0
-132 -129 0
-217 -127 0
-218 -128 0
-219 -129 0
-133 -130 0
-134 -131 0
-135 -132 0
-217 -133 0
-218 -134 0
-219 -135 0
-184 -136 0
-185 -137 0
-186 -138 0
-145 -139 0
-146 -140 0
-147 -141 0
-163 -139 0
-164 -140 0
-165 -141 0
-214 -139 0
-215 -140 0
-216 -141 0
-157 -142 0
-158 -143 0
-159 -144 0
-163 -142 0
-164 -143 0
-165 -144 0
-184 -145 0
-185 -146 0
-186 -147 0
-181 -148 0
-182 -149 0
-183 -150 0
-202 -148 0
-203 -149 0
-204 -150 0
-169 -151 0
-170 -152 0
-171 -153 0
-190 -151 0
-191 -152 0
-192 -153 0
-223 -154 0
-224 -155 0
-225 -156 0
-172 -157 0
-173 -158 0
-174 -159 0
-184 -157 0
-185 -158 0
-186 -159 0
-208 -157 0
-209 -158 0
-210 -159 0
-169 -160 0
-170 -161 0
-171 -162 0
-175 -160 0
-176 -161 0
-177 -162 0
-211 -160 0
-212 -161 0
-213 -162 0
-187 -163 0
-188 -164 0
-189 -165 0
-169 -166 0
-170 -167 0
-171 -168 0
-214 -169 0
-215 -170 0
-216 -171 0
-175 -172 0
-176 -173 0
-177 -174 0
-187 -172 0
-188 -173 0
-189 -174 0
-184 -175 0
-185 -176 0
-186 -177 0
-199 -181 0
-200 -182 0
-201 -183 0
-202 -184 0
-203 -185 0
-204 -186 0
-223 -184 0
-224 -185 0
-225 -186 0
-217 -187 0
-218 -188 0
-219 -189 0
-193 -190 0
-194 -191 0
-195 -192 0
-211 -190 0
-212 -191 0
-213 -192 0
-211 -193 0
-212 -194 0
-213 -195 0
-202 -196 0
-203 -197 0
-204 -198 0
-217 -199 0
-218 -200 0
-219 -201 0
-223 -199 0
-224 -200 0
-225 -201 0
